data/solutions/recovery/wellformed/moderate/flexible/wellformed_moderate_instance76/37.sol
Elapsed time: 0.03
Upper bound: 1906.0
Planning weighted value: 119461.0
C[0]=1906.0
C[1]=1892.0
C[2]=1876.0
C[3]=1806.0
C[4]=1801.0
C[5]=0.0
y[0]=1
y[1]=3
y[2]=3
y[3]=2
y[4]=1
y[5]=2
y[6]=2
y[7]=3
y[8]=1
y[9]=4
y[10]=4
y[11]=1
y[12]=4
y[13]=0
y[14]=3
y[15]=3
y[16]=2
y[17]=0
y[18]=1
y[19]=0
