data/solutions/recovery/wellformed/moderate/flexible/wellformed_moderate_instance76/37.log

Log started (V12.6.3.0) Fri Apr 20 20:56:42 2018

New value for default parallel thread count: 1

Problem '/tmp/tmpm2Icmq.pyomo.lp' read.
Read time = 0.00 sec. (0.03 ticks)

Problem name         : /tmp/tmpm2Icmq.pyomo.lp
Objective sense      : Minimize
Variables            :     128  [Nneg: 1,  Binary: 120,  General Integer: 7]
Objective nonzeros   :       1
Linear constraints   :      54  [Less: 26,  Equal: 28]
  Nonzeros           :    1973
  RHS nonzeros       :      41

Variables            : Min LB: 0.000000         Max UB: 1.000000       
Objective nonzeros   : Min   : 1.000000         Max   : 1.000000       
Linear constraints   :
  Nonzeros           : Min   : 1.000000         Max   : 971.0000       
  RHS nonzeros       : Min   : 1.000000         Max   : 2.000000       
Tried aggregator 2 times.
MIP Presolve eliminated 23 rows and 26 columns.
Aggregator did 6 substitutions.
Reduced MIP has 25 rows, 96 columns, and 259 nonzeros.
Reduced MIP has 95 binaries, 1 generals, 0 SOSs, and 0 indicators.
Presolve time = 0.00 sec. (0.74 ticks)
Found incumbent of value 9281.000000 after 0.00 sec. (0.91 ticks)
Probing time = 0.00 sec. (0.08 ticks)
Cover probing fixed 0 vars, tightened 3 bounds.
Tried aggregator 1 time.
Reduced MIP has 25 rows, 96 columns, and 259 nonzeros.
Reduced MIP has 95 binaries, 1 generals, 0 SOSs, and 0 indicators.
Presolve time = 0.00 sec. (0.17 ticks)
Probing time = 0.00 sec. (0.06 ticks)
Clique table members: 19.
MIP emphasis: balance optimality and feasibility.
MIP search method: dynamic search.
Parallel mode: none, using 1 thread.
Root relaxation solution time = 0.00 sec. (0.08 ticks)

        Nodes                                         Cuts/
   Node  Left     Objective  IInf  Best Integer    Best Bound    ItCnt     Gap

*     0+    0                         9281.0000      971.0000            89.54%
      0     0     1856.2000     8     9281.0000     1856.2000        8   80.00%
*     0+    0                         2156.0000     1856.2000            13.91%
      0     0     1857.0000    14     2156.0000      Fract: 5       22   13.87%
      0     0     1858.0820    15     2156.0000      Cuts: 11       54   13.82%
      0     0     1863.2281    22     2156.0000      Cuts: 12       71   13.58%
*     0+    0                         1930.0000     1863.2281             3.46%
      0     0     1867.4779    23     1930.0000       Cuts: 6       88    3.24%
      0     0     1873.3268    25     1930.0000       Cuts: 6      104    2.94%
*     0+    0                         1906.0000     1873.3268             1.71%
      0     0     1874.9316    27     1906.0000    MIRcuts: 4      124    1.63%
      0     0     1875.5400    31     1906.0000    MIRcuts: 5      134    1.60%
      0     0     1878.2136    30     1906.0000       Cuts: 6      156    1.46%
      0     0     1879.1924    33     1906.0000       Cuts: 5      173    1.41%
      0     0     1888.0145    28     1906.0000       Cuts: 9      206    0.94%

Repeating presolve.
Tried aggregator 2 times.
MIP Presolve eliminated 5 rows and 50 columns.
MIP Presolve modified 6 coefficients.
Aggregator did 4 substitutions.
Reduced MIP has 16 rows, 42 columns, and 109 nonzeros.
Reduced MIP has 41 binaries, 1 generals, 0 SOSs, and 0 indicators.
Presolve time = 0.00 sec. (0.14 ticks)
Probing fixed 2 vars, tightened 0 bounds.
Probing time = 0.00 sec. (0.03 ticks)
Tried aggregator 1 time.
MIP Presolve eliminated 0 rows and 2 columns.
MIP Presolve modified 3 coefficients.
Reduced MIP has 16 rows, 40 columns, and 103 nonzeros.
Reduced MIP has 39 binaries, 1 generals, 0 SOSs, and 0 indicators.
Presolve time = 0.00 sec. (0.06 ticks)
Probing time = 0.00 sec. (0.02 ticks)
Tried aggregator 1 time.
Reduced MIP has 16 rows, 40 columns, and 103 nonzeros.
Reduced MIP has 39 binaries, 1 generals, 0 SOSs, and 0 indicators.
Presolve time = 0.00 sec. (0.06 ticks)
Represolve time = 0.00 sec. (0.58 ticks)
Probing time = 0.00 sec. (0.02 ticks)
Clique table members: 12.
MIP emphasis: balance optimality and feasibility.
MIP search method: dynamic search.
Parallel mode: none, using 1 thread.
Root relaxation solution time = 0.00 sec. (0.18 ticks)

        Nodes                                         Cuts/
   Node  Left     Objective  IInf  Best Integer    Best Bound    ItCnt     Gap

*     0+    0                         1906.0000     1888.0145             0.94%
      0     0        cutoff           1906.0000                    241    0.00%

Mixed integer rounding cuts applied:  13
Gomory fractional cuts applied:  1

Root node processing (before b&c):
  Real time             =    0.02 sec. (9.91 ticks)
Sequential b&c:
  Real time             =    0.00 sec. (0.00 ticks)
                          ------------
Total (root+branch&cut) =    0.02 sec. (9.91 ticks)

Solution pool: 4 solutions saved.

MIP - Integer optimal solution:  Objective =  1.9060000000e+03
Solution time =    0.02 sec.  Iterations = 241  Nodes = 0
Deterministic time = 9.91 ticks  (605.72 ticks/sec)


Incumbent solution written to file '/tmp/tmpTm6_TM.cplex.sol'.
